(set-info :source |printed by MathSAT|)
(declare-fun call__DRAGON_.ite12 () Int)
(declare-fun call__DRAGON_.shared () Int)
(declare-fun flby () Bool)
(declare-fun param_init_invalid () Int)
(declare-fun call__DRAGON_.erreur () Bool)
(declare-fun call__DRAGON_.ite35 () Int)
(declare-fun call__DRAGON_.ite19 () Int)
(declare-fun call__DRAGON_.ite50 () Int)
(declare-fun call__DRAGON_.ite59 () Int)
(declare-fun call__DRAGON_.ite4 () Int)
(declare-fun call__DRAGON_.ite53 () Int)
(declare-fun param_e09 () Bool)
(declare-fun env () Bool)
(declare-fun call__DRAGON_.ite57 () Int)
(declare-fun param_e05 () Bool)
(declare-fun shared_dirty () Int)
(declare-fun call__DRAGON_.ite28 () Int)
(declare-fun call_Sofar.Sofar () Bool)
(declare-fun call__DRAGON_.ite41 () Int)
(declare-fun param_e03 () Bool)
(declare-fun call__DRAGON_.ite22 () Int)
(declare-fun call__DRAGON_.ite14 () Int)
(declare-fun call_Sofar.flby () Bool)
(declare-fun call__DRAGON_.ite13 () Int)
(declare-fun call__DRAGON_.ite44 () Int)
(declare-fun call__DRAGON_.flby4 () Int)
(declare-fun call__DRAGON_.ite48 () Int)
(declare-fun call__DRAGON_.mem_init () Int)
(declare-fun call__DRAGON_.ite39 () Int)
(declare-fun call__DRAGON_.dirty () Int)
(declare-fun call__DRAGON_.flby2 () Int)
(declare-fun call__DRAGON_.ite10 () Int)
(declare-fun call__DRAGON_.g05 () Bool)
(declare-fun call__DRAGON_.ite21 () Int)
(declare-fun call__DRAGON_.ite47 () Int)
(declare-fun param_e08 () Bool)
(declare-fun call__DRAGON_.ite43 () Int)
(declare-fun call__DRAGON_.ite42 () Int)
(declare-fun call__DRAGON_.ite16 () Int)
(declare-fun call_excludes12.excludes () Bool)
(declare-fun call__DRAGON_.ite15 () Int)
(declare-fun param_e10 () Bool)
(declare-fun call__DRAGON_.ite46 () Int)
(declare-fun param_e12 () Bool)
(declare-fun call__DRAGON_.ite17 () Int)
(declare-fun shared () Int)
(declare-fun param_e02 () Bool)
(declare-fun erreur () Bool)
(declare-fun call__DRAGON_.flby () Int)
(declare-fun call__DRAGON_.ite31 () Int)
(declare-fun call__DRAGON_.ite61 () Int)
(declare-fun exclusive () Int)
(declare-fun call__DRAGON_.g06 () Bool)
(declare-fun call__DRAGON_.invalid () Int)
(declare-fun call__DRAGON_.ite40 () Int)
(declare-fun param_e06 () Bool)
(declare-fun call__DRAGON_.shared_dirty () Int)
(declare-fun call__DRAGON_.ite9 () Int)
(declare-fun call__DRAGON_.ite8 () Int)
(declare-fun param_e04 () Bool)
(declare-fun call__DRAGON_.ite32 () Int)
(declare-fun call__DRAGON_.ite2 () Int)
(declare-fun call__DRAGON_.ite27 () Int)
(declare-fun call__DRAGON_.ite23 () Int)
(declare-fun call__DRAGON_.ite24 () Int)
(declare-fun call__DRAGON_.ite20 () Int)
(declare-fun call__DRAGON_.ite56 () Int)
(declare-fun call__DRAGON_.ite25 () Int)
(declare-fun call__DRAGON_.ite60 () Int)
(declare-fun call__DRAGON_.ite6 () Int)
(declare-fun call__DRAGON_.flby5 () Int)
(declare-fun call__DRAGON_.ite11 () Int)
(declare-fun param_e07 () Bool)
(declare-fun call__DRAGON_.ite55 () Int)
(declare-fun call__DRAGON_.ite18 () Int)
(declare-fun call__DRAGON_.ite33 () Int)
(declare-fun call__DRAGON_.ite52 () Int)
(declare-fun invalid () Int)
(declare-fun call__DRAGON_.ite29 () Int)
(declare-fun call__DRAGON_.ite7 () Int)
(declare-fun call__DRAGON_.ite3 () Int)
(declare-fun call__DRAGON_.ite49 () Int)
(declare-fun call__DRAGON_.ite () Bool)
(declare-fun call__DRAGON_.ite54 () Int)
(declare-fun call__DRAGON_.ite58 () Int)
(declare-fun call__DRAGON_.g08 () Bool)
(declare-fun call__DRAGON_.ite34 () Int)
(declare-fun call__DRAGON_.flby3 () Int)
(declare-fun call__DRAGON_.g02 () Bool)
(declare-fun param_e01 () Bool)
(declare-fun call__DRAGON_.exclusive () Int)
(declare-fun call__DRAGON_.ite5 () Int)
(declare-fun call__DRAGON_.ite51 () Int)
(declare-fun _OK_ () Bool)
(declare-fun call__DRAGON_.ite36 () Int)
(declare-fun call__DRAGON_.ite38 () Int)
(declare-fun param_e11 () Bool)
(declare-fun call__DRAGON_.ite45 () Int)
(declare-fun call__DRAGON_.ite37 () Int)
(declare-fun call__DRAGON_.ite30 () Int)
(declare-fun call__DRAGON_.flby6 () Int)
(declare-fun dirty () Int)
(declare-fun call__DRAGON_.g04 () Bool)
(declare-fun call__DRAGON_.ite26 () Int)
(define-fun .def_1756 () Bool (= call_Sofar.flby call_Sofar.Sofar))
(define-fun .def_1565 () Bool (not param_e02))
(define-fun .def_1546 () Bool (not param_e01))
(define-fun .def_1654 () Bool (and .def_1546 .def_1565))
(define-fun .def_1605 () Bool (not param_e03))
(define-fun .def_1655 () Bool (and .def_1605 .def_1654))
(define-fun .def_1621 () Bool (not param_e04))
(define-fun .def_1656 () Bool (and .def_1621 .def_1655))
(define-fun .def_1415 () Bool (not param_e05))
(define-fun .def_1657 () Bool (and .def_1415 .def_1656))
(define-fun .def_1399 () Bool (not param_e06))
(define-fun .def_1658 () Bool (and .def_1399 .def_1657))
(define-fun .def_1435 () Bool (not param_e07))
(define-fun .def_1659 () Bool (and .def_1435 .def_1658))
(define-fun .def_1453 () Bool (not param_e08))
(define-fun .def_1660 () Bool (and .def_1453 .def_1659))
(define-fun .def_1293 () Bool (not param_e09))
(define-fun .def_1661 () Bool (and .def_1293 .def_1660))
(define-fun .def_1299 () Bool (not param_e10))
(define-fun .def_1662 () Bool (and .def_1299 .def_1661))
(define-fun .def_1308 () Bool (not param_e11))
(define-fun .def_1663 () Bool (and .def_1308 .def_1662))
(define-fun .def_1315 () Bool (not param_e12))
(define-fun .def_1741 () Bool (and .def_1315 .def_1663))
(define-fun .def_1730 () Bool (and param_e01 .def_1565))
(define-fun .def_1731 () Bool (and .def_1605 .def_1730))
(define-fun .def_1732 () Bool (and .def_1621 .def_1731))
(define-fun .def_1733 () Bool (and .def_1415 .def_1732))
(define-fun .def_1734 () Bool (and .def_1399 .def_1733))
(define-fun .def_1735 () Bool (and .def_1435 .def_1734))
(define-fun .def_1736 () Bool (and .def_1453 .def_1735))
(define-fun .def_1737 () Bool (and .def_1293 .def_1736))
(define-fun .def_1738 () Bool (and .def_1299 .def_1737))
(define-fun .def_1739 () Bool (and .def_1308 .def_1738))
(define-fun .def_1740 () Bool (and .def_1315 .def_1739))
(define-fun .def_1742 () Bool (or .def_1740 .def_1741))
(define-fun .def_1719 () Bool (and .def_1546 param_e02))
(define-fun .def_1720 () Bool (and .def_1605 .def_1719))
(define-fun .def_1721 () Bool (and .def_1621 .def_1720))
(define-fun .def_1722 () Bool (and .def_1415 .def_1721))
(define-fun .def_1723 () Bool (and .def_1399 .def_1722))
(define-fun .def_1724 () Bool (and .def_1435 .def_1723))
(define-fun .def_1725 () Bool (and .def_1453 .def_1724))
(define-fun .def_1726 () Bool (and .def_1293 .def_1725))
(define-fun .def_1727 () Bool (and .def_1299 .def_1726))
(define-fun .def_1728 () Bool (and .def_1308 .def_1727))
(define-fun .def_1729 () Bool (and .def_1315 .def_1728))
(define-fun .def_1743 () Bool (or .def_1729 .def_1742))
(define-fun .def_1709 () Bool (and param_e03 .def_1654))
(define-fun .def_1710 () Bool (and .def_1621 .def_1709))
(define-fun .def_1711 () Bool (and .def_1415 .def_1710))
(define-fun .def_1712 () Bool (and .def_1399 .def_1711))
(define-fun .def_1713 () Bool (and .def_1435 .def_1712))
(define-fun .def_1714 () Bool (and .def_1453 .def_1713))
(define-fun .def_1715 () Bool (and .def_1293 .def_1714))
(define-fun .def_1716 () Bool (and .def_1299 .def_1715))
(define-fun .def_1717 () Bool (and .def_1308 .def_1716))
(define-fun .def_1718 () Bool (and .def_1315 .def_1717))
(define-fun .def_1744 () Bool (or .def_1718 .def_1743))
(define-fun .def_1700 () Bool (and param_e04 .def_1655))
(define-fun .def_1701 () Bool (and .def_1415 .def_1700))
(define-fun .def_1702 () Bool (and .def_1399 .def_1701))
(define-fun .def_1703 () Bool (and .def_1435 .def_1702))
(define-fun .def_1704 () Bool (and .def_1453 .def_1703))
(define-fun .def_1705 () Bool (and .def_1293 .def_1704))
(define-fun .def_1706 () Bool (and .def_1299 .def_1705))
(define-fun .def_1707 () Bool (and .def_1308 .def_1706))
(define-fun .def_1708 () Bool (and .def_1315 .def_1707))
(define-fun .def_1745 () Bool (or .def_1708 .def_1744))
(define-fun .def_1692 () Bool (and param_e05 .def_1656))
(define-fun .def_1693 () Bool (and .def_1399 .def_1692))
(define-fun .def_1694 () Bool (and .def_1435 .def_1693))
(define-fun .def_1695 () Bool (and .def_1453 .def_1694))
(define-fun .def_1696 () Bool (and .def_1293 .def_1695))
(define-fun .def_1697 () Bool (and .def_1299 .def_1696))
(define-fun .def_1698 () Bool (and .def_1308 .def_1697))
(define-fun .def_1699 () Bool (and .def_1315 .def_1698))
(define-fun .def_1746 () Bool (or .def_1699 .def_1745))
(define-fun .def_1685 () Bool (and param_e06 .def_1657))
(define-fun .def_1686 () Bool (and .def_1435 .def_1685))
(define-fun .def_1687 () Bool (and .def_1453 .def_1686))
(define-fun .def_1688 () Bool (and .def_1293 .def_1687))
(define-fun .def_1689 () Bool (and .def_1299 .def_1688))
(define-fun .def_1690 () Bool (and .def_1308 .def_1689))
(define-fun .def_1691 () Bool (and .def_1315 .def_1690))
(define-fun .def_1747 () Bool (or .def_1691 .def_1746))
(define-fun .def_1679 () Bool (and param_e07 .def_1658))
(define-fun .def_1680 () Bool (and .def_1453 .def_1679))
(define-fun .def_1681 () Bool (and .def_1293 .def_1680))
(define-fun .def_1682 () Bool (and .def_1299 .def_1681))
(define-fun .def_1683 () Bool (and .def_1308 .def_1682))
(define-fun .def_1684 () Bool (and .def_1315 .def_1683))
(define-fun .def_1748 () Bool (or .def_1684 .def_1747))
(define-fun .def_1674 () Bool (and param_e08 .def_1659))
(define-fun .def_1675 () Bool (and .def_1293 .def_1674))
(define-fun .def_1676 () Bool (and .def_1299 .def_1675))
(define-fun .def_1677 () Bool (and .def_1308 .def_1676))
(define-fun .def_1678 () Bool (and .def_1315 .def_1677))
(define-fun .def_1749 () Bool (or .def_1678 .def_1748))
(define-fun .def_1670 () Bool (and param_e09 .def_1660))
(define-fun .def_1671 () Bool (and .def_1299 .def_1670))
(define-fun .def_1672 () Bool (and .def_1308 .def_1671))
(define-fun .def_1673 () Bool (and .def_1315 .def_1672))
(define-fun .def_1750 () Bool (or .def_1673 .def_1749))
(define-fun .def_1667 () Bool (and param_e10 .def_1661))
(define-fun .def_1668 () Bool (and .def_1308 .def_1667))
(define-fun .def_1669 () Bool (and .def_1315 .def_1668))
(define-fun .def_1751 () Bool (or .def_1669 .def_1750))
(define-fun .def_1665 () Bool (and param_e11 .def_1662))
(define-fun .def_1666 () Bool (and .def_1315 .def_1665))
(define-fun .def_1752 () Bool (or .def_1666 .def_1751))
(define-fun .def_1664 () Bool (and param_e12 .def_1663))
(define-fun .def_1753 () Bool (or .def_1664 .def_1752))
(define-fun .def_1754 () Bool (= call_excludes12.excludes .def_1753))
(define-fun .def_1652 () Bool (= call__DRAGON_.mem_init call__DRAGON_.flby))
(define-fun .def_1650 () Bool (= call__DRAGON_.erreur call__DRAGON_.ite))
(define-fun .def_1648 () Bool (= call__DRAGON_.flby6 call__DRAGON_.invalid))
(define-fun .def_1646 () Bool (= call__DRAGON_.flby5 call__DRAGON_.dirty))
(define-fun .def_1644 () Bool (= call__DRAGON_.flby4 call__DRAGON_.shared_dirty))
(define-fun .def_1642 () Bool (= call__DRAGON_.flby3 call__DRAGON_.shared))
(define-fun .def_1639 () Bool (= call__DRAGON_.flby2 call__DRAGON_.exclusive))
(define-fun .def_1634 () Bool (<= 2 call__DRAGON_.exclusive))
(define-fun .def_1636 () Bool (not .def_1634))
(define-fun .def_1637 () Bool (or call__DRAGON_.ite .def_1636))
(define-fun .def_1633 () Bool (not call__DRAGON_.ite))
(define-fun .def_1635 () Bool (or .def_1633 .def_1634))
(define-fun .def_1638 () Bool (and .def_1635 .def_1637))
(define-fun .def_1640 () Bool (and .def_1638 .def_1639))
(define-fun .def_1628 () Bool (= call__DRAGON_.ite42 call__DRAGON_.ite43))
(define-fun .def_1629 () Bool (or param_e04 .def_1628))
(define-fun .def_1625 () Bool (= call__DRAGON_.ite43 call__DRAGON_.ite34))
(define-fun .def_1626 () Bool (or .def_1621 .def_1625))
(define-fun .def_1620 () Bool (= call__DRAGON_.ite23 call__DRAGON_.ite30))
(define-fun .def_1622 () Bool (or .def_1620 .def_1621))
(define-fun .def_1617 () Bool (= call__DRAGON_.ite29 call__DRAGON_.ite30))
(define-fun .def_1619 () Bool (or .def_1617 param_e04))
(define-fun .def_1623 () Bool (and .def_1619 .def_1622))
(define-fun .def_1627 () Bool (and .def_1623 .def_1626))
(define-fun .def_1630 () Bool (and .def_1627 .def_1629))
(define-fun .def_1613 () Bool (= call__DRAGON_.ite44 call__DRAGON_.ite43))
(define-fun .def_1614 () Bool (or param_e03 .def_1613))
(define-fun .def_1609 () Bool (= call__DRAGON_.ite44 call__DRAGON_.ite33))
(define-fun .def_1610 () Bool (or .def_1605 .def_1609))
(define-fun .def_1604 () Bool (= call__DRAGON_.ite9 call__DRAGON_.ite4))
(define-fun .def_1606 () Bool (or .def_1604 .def_1605))
(define-fun .def_1600 () Bool (= call__DRAGON_.ite8 call__DRAGON_.ite9))
(define-fun .def_1602 () Bool (or .def_1600 param_e03))
(define-fun .def_1607 () Bool (and .def_1602 .def_1606))
(define-fun .def_1611 () Bool (and .def_1607 .def_1610))
(define-fun .def_1615 () Bool (and .def_1611 .def_1614))
(define-fun .def_1596 () Bool (= call__DRAGON_.ite31 call__DRAGON_.ite30))
(define-fun .def_1597 () Bool (or param_e02 .def_1596))
(define-fun .def_1592 () Bool (= call__DRAGON_.ite22 call__DRAGON_.ite31))
(define-fun .def_1593 () Bool (or .def_1565 .def_1592))
(define-fun .def_1587 () Bool (= call__DRAGON_.ite20 call__DRAGON_.ite21))
(define-fun .def_1588 () Bool (or param_e02 .def_1587))
(define-fun .def_1584 () Bool (= call__DRAGON_.ite12 call__DRAGON_.ite21))
(define-fun .def_1585 () Bool (or .def_1565 .def_1584))
(define-fun .def_1579 () Bool (= call__DRAGON_.ite10 call__DRAGON_.ite9))
(define-fun .def_1580 () Bool (or param_e02 .def_1579))
(define-fun .def_1575 () Bool (= call__DRAGON_.ite3 call__DRAGON_.ite10))
(define-fun .def_1576 () Bool (or .def_1565 .def_1575))
(define-fun .def_1572 () Bool (= call__DRAGON_.ite59 call__DRAGON_.ite60))
(define-fun .def_1573 () Bool (or param_e02 .def_1572))
(define-fun .def_1569 () Bool (= call__DRAGON_.ite60 call__DRAGON_.ite47))
(define-fun .def_1570 () Bool (or .def_1565 .def_1569))
(define-fun .def_1564 () Bool (= call__DRAGON_.ite32 call__DRAGON_.ite45))
(define-fun .def_1566 () Bool (or .def_1564 .def_1565))
(define-fun .def_1561 () Bool (= call__DRAGON_.ite45 call__DRAGON_.ite44))
(define-fun .def_1563 () Bool (or .def_1561 param_e02))
(define-fun .def_1567 () Bool (and .def_1563 .def_1566))
(define-fun .def_1571 () Bool (and .def_1567 .def_1570))
(define-fun .def_1574 () Bool (and .def_1571 .def_1573))
(define-fun .def_1577 () Bool (and .def_1574 .def_1576))
(define-fun .def_1581 () Bool (and .def_1577 .def_1580))
(define-fun .def_1586 () Bool (and .def_1581 .def_1585))
(define-fun .def_1589 () Bool (and .def_1586 .def_1588))
(define-fun .def_1594 () Bool (and .def_1589 .def_1593))
(define-fun .def_1598 () Bool (and .def_1594 .def_1597))
(define-fun .def_1555 () Bool (= call__DRAGON_.ite11 call__DRAGON_.ite10))
(define-fun .def_1556 () Bool (or param_e01 .def_1555))
(define-fun .def_1551 () Bool (= call__DRAGON_.ite2 call__DRAGON_.ite11))
(define-fun .def_1552 () Bool (or .def_1546 .def_1551))
(define-fun .def_1545 () Bool (= call__DRAGON_.ite61 call__DRAGON_.ite46))
(define-fun .def_1547 () Bool (or .def_1545 .def_1546))
(define-fun .def_1541 () Bool (= call__DRAGON_.ite61 call__DRAGON_.ite60))
(define-fun .def_1543 () Bool (or .def_1541 param_e01))
(define-fun .def_1548 () Bool (and .def_1543 .def_1547))
(define-fun .def_1553 () Bool (and .def_1548 .def_1552))
(define-fun .def_1557 () Bool (and .def_1553 .def_1556))
(define-fun .def_1535 () Bool (= call__DRAGON_.ite55 call__DRAGON_.ite52))
(define-fun .def_1536 () Bool (or .def_1308 .def_1535))
(define-fun .def_1532 () Bool (= call__DRAGON_.ite54 call__DRAGON_.ite55))
(define-fun .def_1533 () Bool (or param_e11 .def_1532))
(define-fun .def_1537 () Bool (and .def_1533 .def_1536))
(define-fun .def_1528 () Bool (= call__DRAGON_.ite56 call__DRAGON_.ite51))
(define-fun .def_1529 () Bool (or .def_1299 .def_1528))
(define-fun .def_1525 () Bool (= call__DRAGON_.ite56 call__DRAGON_.ite55))
(define-fun .def_1526 () Bool (or param_e10 .def_1525))
(define-fun .def_1530 () Bool (and .def_1526 .def_1529))
(define-fun .def_1520 () Bool (= call__DRAGON_.ite57 call__DRAGON_.ite50))
(define-fun .def_1521 () Bool (or .def_1293 .def_1520))
(define-fun .def_1517 () Bool (= call__DRAGON_.ite57 call__DRAGON_.ite56))
(define-fun .def_1518 () Bool (or param_e09 .def_1517))
(define-fun .def_1522 () Bool (and .def_1518 .def_1521))
(define-fun .def_1514 () Bool (= env call_Sofar.Sofar))
(define-fun .def_1511 () Bool (= erreur call__DRAGON_.erreur))
(define-fun .def_1507 () Bool (= invalid call__DRAGON_.invalid))
(define-fun .def_1503 () Bool (= dirty call__DRAGON_.dirty))
(define-fun .def_1499 () Bool (= shared_dirty call__DRAGON_.shared_dirty))
(define-fun .def_1495 () Bool (= shared call__DRAGON_.shared))
(define-fun .def_1491 () Bool (= exclusive call__DRAGON_.exclusive))
(define-fun .def_1485 () Bool (not env))
(define-fun .def_1486 () Bool (or flby .def_1485))
(define-fun .def_1487 () Bool (= _OK_ .def_1486))
(define-fun .def_1479 () Bool (= call__DRAGON_.ite39 call__DRAGON_.ite40))
(define-fun .def_1480 () Bool (or param_e08 .def_1479))
(define-fun .def_1476 () Bool (= call__DRAGON_.ite37 call__DRAGON_.ite40))
(define-fun .def_1477 () Bool (or .def_1453 .def_1476))
(define-fun .def_1473 () Bool (= call__DRAGON_.ite27 call__DRAGON_.ite28))
(define-fun .def_1474 () Bool (or param_e08 .def_1473))
(define-fun .def_1470 () Bool (= call__DRAGON_.ite25 call__DRAGON_.ite28))
(define-fun .def_1471 () Bool (or .def_1453 .def_1470))
(define-fun .def_1467 () Bool (= call__DRAGON_.ite17 call__DRAGON_.ite18))
(define-fun .def_1468 () Bool (or param_e08 .def_1467))
(define-fun .def_1464 () Bool (= call__DRAGON_.ite18 call__DRAGON_.ite15))
(define-fun .def_1465 () Bool (or .def_1453 .def_1464))
(define-fun .def_1460 () Bool (= call__DRAGON_.ite7 call__DRAGON_.ite8))
(define-fun .def_1461 () Bool (or param_e08 .def_1460))
(define-fun .def_1457 () Bool (= call__DRAGON_.ite5 call__DRAGON_.ite8))
(define-fun .def_1458 () Bool (or .def_1453 .def_1457))
(define-fun .def_1452 () Bool (= call__DRAGON_.ite58 call__DRAGON_.ite49))
(define-fun .def_1454 () Bool (or .def_1452 .def_1453))
(define-fun .def_1448 () Bool (= call__DRAGON_.ite58 call__DRAGON_.ite57))
(define-fun .def_1450 () Bool (or .def_1448 param_e08))
(define-fun .def_1455 () Bool (and .def_1450 .def_1454))
(define-fun .def_1459 () Bool (and .def_1455 .def_1458))
(define-fun .def_1462 () Bool (and .def_1459 .def_1461))
(define-fun .def_1466 () Bool (and .def_1462 .def_1465))
(define-fun .def_1469 () Bool (and .def_1466 .def_1468))
(define-fun .def_1472 () Bool (and .def_1469 .def_1471))
(define-fun .def_1475 () Bool (and .def_1472 .def_1474))
(define-fun .def_1478 () Bool (and .def_1475 .def_1477))
(define-fun .def_1481 () Bool (and .def_1478 .def_1480))
(define-fun .def_1443 () Bool (= call__DRAGON_.ite41 call__DRAGON_.ite40))
(define-fun .def_1444 () Bool (or param_e07 .def_1443))
(define-fun .def_1439 () Bool (= call__DRAGON_.ite41 call__DRAGON_.ite36))
(define-fun .def_1440 () Bool (or .def_1435 .def_1439))
(define-fun .def_1434 () Bool (= call__DRAGON_.ite59 call__DRAGON_.ite48))
(define-fun .def_1436 () Bool (or .def_1434 .def_1435))
(define-fun .def_1430 () Bool (= call__DRAGON_.ite58 call__DRAGON_.ite59))
(define-fun .def_1432 () Bool (or .def_1430 param_e07))
(define-fun .def_1437 () Bool (and .def_1432 .def_1436))
(define-fun .def_1441 () Bool (and .def_1437 .def_1440))
(define-fun .def_1445 () Bool (and .def_1441 .def_1444))
(define-fun .def_1424 () Bool (= call__DRAGON_.ite42 call__DRAGON_.ite41))
(define-fun .def_1425 () Bool (or param_e05 .def_1424))
(define-fun .def_1420 () Bool (= call__DRAGON_.ite35 call__DRAGON_.ite42))
(define-fun .def_1421 () Bool (or .def_1415 .def_1420))
(define-fun .def_1414 () Bool (= call__DRAGON_.ite13 call__DRAGON_.ite20))
(define-fun .def_1416 () Bool (or .def_1414 .def_1415))
(define-fun .def_1411 () Bool (= call__DRAGON_.ite19 call__DRAGON_.ite20))
(define-fun .def_1413 () Bool (or .def_1411 param_e05))
(define-fun .def_1417 () Bool (and .def_1413 .def_1416))
(define-fun .def_1422 () Bool (and .def_1417 .def_1421))
(define-fun .def_1426 () Bool (and .def_1422 .def_1425))
(define-fun .def_1407 () Bool (= call__DRAGON_.ite29 call__DRAGON_.ite28))
(define-fun .def_1408 () Bool (or param_e06 .def_1407))
(define-fun .def_1403 () Bool (= call__DRAGON_.ite24 call__DRAGON_.ite29))
(define-fun .def_1404 () Bool (or .def_1399 .def_1403))
(define-fun .def_1398 () Bool (= call__DRAGON_.ite19 call__DRAGON_.ite14))
(define-fun .def_1400 () Bool (or .def_1398 .def_1399))
(define-fun .def_1394 () Bool (= call__DRAGON_.ite19 call__DRAGON_.ite18))
(define-fun .def_1396 () Bool (or .def_1394 param_e06))
(define-fun .def_1401 () Bool (and .def_1396 .def_1400))
(define-fun .def_1405 () Bool (and .def_1401 .def_1404))
(define-fun .def_1409 () Bool (and .def_1405 .def_1408))
(define-fun .def_1427 () Bool (and .def_1409 .def_1426))
(define-fun .def_1446 () Bool (and .def_1427 .def_1445))
(define-fun .def_1482 () Bool (and .def_1446 .def_1481))
(define-fun .def_1488 () Bool (and .def_1482 .def_1487))
(define-fun .def_1492 () Bool (and .def_1488 .def_1491))
(define-fun .def_1496 () Bool (and .def_1492 .def_1495))
(define-fun .def_1500 () Bool (and .def_1496 .def_1499))
(define-fun .def_1504 () Bool (and .def_1500 .def_1503))
(define-fun .def_1508 () Bool (and .def_1504 .def_1507))
(define-fun .def_1512 () Bool (and .def_1508 .def_1511))
(define-fun .def_1515 () Bool (and .def_1512 .def_1514))
(define-fun .def_1523 () Bool (and .def_1515 .def_1522))
(define-fun .def_1531 () Bool (and .def_1523 .def_1530))
(define-fun .def_1538 () Bool (and .def_1531 .def_1537))
(define-fun .def_1558 () Bool (and .def_1538 .def_1557))
(define-fun .def_1599 () Bool (and .def_1558 .def_1598))
(define-fun .def_1616 () Bool (and .def_1599 .def_1615))
(define-fun .def_1631 () Bool (and .def_1616 .def_1630))
(define-fun .def_1641 () Bool (and .def_1631 .def_1640))
(define-fun .def_1643 () Bool (and .def_1641 .def_1642))
(define-fun .def_1645 () Bool (and .def_1643 .def_1644))
(define-fun .def_1647 () Bool (and .def_1645 .def_1646))
(define-fun .def_1649 () Bool (and .def_1647 .def_1648))
(define-fun .def_1651 () Bool (and .def_1649 .def_1650))
(define-fun .def_1653 () Bool (and .def_1651 .def_1652))
(define-fun .def_1755 () Bool (and .def_1653 .def_1754))
(define-fun .def_1757 () Bool (and .def_1755 .def_1756))
(define-fun .def_1385 () Bool (<= param_init_invalid 0))
(define-fun .def_1386 () Bool (not .def_1385))
(define-fun .def_1388 () Bool (and .def_1386 call_excludes12.excludes))
(define-fun .def_1390 () Bool (= .def_1388 call_Sofar.flby))
(define-fun .def_1383 () Bool (= call__DRAGON_.flby4 0))
(define-fun .def_1380 () Bool (= call__DRAGON_.flby3 0))
(define-fun .def_1377 () Bool (= call__DRAGON_.flby2 0))
(define-fun .def_1374 () Bool (= param_init_invalid call__DRAGON_.flby))
(define-fun .def_1368 () Bool (= call__DRAGON_.ite37 0))
(define-fun .def_1361 () Bool (not call__DRAGON_.g08))
(define-fun .def_1369 () Bool (or .def_1361 .def_1368))
(define-fun .def_1364 () Bool (= call__DRAGON_.ite5 0))
(define-fun .def_1365 () Bool (or .def_1361 .def_1364))
(define-fun .def_1359 () Bool (= call__DRAGON_.ite25 1))
(define-fun .def_1362 () Bool (or .def_1359 .def_1361))
(define-fun .def_1366 () Bool (and .def_1362 .def_1365))
(define-fun .def_1370 () Bool (and .def_1366 .def_1369))
(define-fun .def_1355 () Bool (= call__DRAGON_.ite24 1))
(define-fun .def_1353 () Bool (not call__DRAGON_.g06))
(define-fun .def_1356 () Bool (or .def_1353 .def_1355))
(define-fun .def_1349 () Bool (= call__DRAGON_.ite13 0))
(define-fun .def_1347 () Bool (not call__DRAGON_.g05))
(define-fun .def_1350 () Bool (or .def_1347 .def_1349))
(define-fun .def_1343 () Bool (= call__DRAGON_.ite23 0))
(define-fun .def_1341 () Bool (not call__DRAGON_.g04))
(define-fun .def_1344 () Bool (or .def_1341 .def_1343))
(define-fun .def_1336 () Bool (= call__DRAGON_.ite3 0))
(define-fun .def_1333 () Bool (not call__DRAGON_.g02))
(define-fun .def_1337 () Bool (or .def_1333 .def_1336))
(define-fun .def_1331 () Bool (= call__DRAGON_.ite32 0))
(define-fun .def_1334 () Bool (or .def_1331 .def_1333))
(define-fun .def_1338 () Bool (and .def_1334 .def_1337))
(define-fun .def_1328 () Bool (= call__DRAGON_.flby6 call__DRAGON_.mem_init))
(define-fun .def_1324 () Bool (= call__DRAGON_.flby5 0))
(define-fun .def_1319 () Bool (= call__DRAGON_.ite53 call__DRAGON_.ite54))
(define-fun .def_1320 () Bool (or .def_1315 .def_1319))
(define-fun .def_1313 () Bool (= call__DRAGON_.ite6 call__DRAGON_.ite7))
(define-fun .def_1316 () Bool (or .def_1313 .def_1315))
(define-fun .def_1321 () Bool (and .def_1316 .def_1320))
(define-fun .def_1306 () Bool (= call__DRAGON_.ite26 call__DRAGON_.ite27))
(define-fun .def_1309 () Bool (or .def_1306 .def_1308))
(define-fun .def_1297 () Bool (= call__DRAGON_.ite16 call__DRAGON_.ite17))
(define-fun .def_1300 () Bool (or .def_1297 .def_1299))
(define-fun .def_1291 () Bool (= call__DRAGON_.ite38 call__DRAGON_.ite39))
(define-fun .def_1294 () Bool (or .def_1291 .def_1293))
(define-fun .def_1301 () Bool (and .def_1294 .def_1300))
(define-fun .def_1303 () Bool (and .def_1301 flby))
(define-fun .def_1310 () Bool (and .def_1303 .def_1309))
(define-fun .def_1322 () Bool (and .def_1310 .def_1321))
(define-fun .def_1325 () Bool (and .def_1322 .def_1324))
(define-fun .def_1329 () Bool (and .def_1325 .def_1328))
(define-fun .def_1339 () Bool (and .def_1329 .def_1338))
(define-fun .def_1345 () Bool (and .def_1339 .def_1344))
(define-fun .def_1351 () Bool (and .def_1345 .def_1350))
(define-fun .def_1357 () Bool (and .def_1351 .def_1356))
(define-fun .def_1371 () Bool (and .def_1357 .def_1370))
(define-fun .def_1375 () Bool (and .def_1371 .def_1374))
(define-fun .def_1378 () Bool (and .def_1375 .def_1377))
(define-fun .def_1381 () Bool (and .def_1378 .def_1380))
(define-fun .def_1384 () Bool (and .def_1381 .def_1383))
(define-fun .def_1391 () Bool (and .def_1384 .def_1390))
(define-fun .def_1758 () Bool (and .def_1391 .def_1757))
(assert .def_1758)
